1278533
18,61,86,95,92,12,20,52,16,79,47,73,91,55,102,29,5,60,94,31,42,84,43,78,3,66,22,14,21,63,9,108,23,89,2,82,62,19,24,15,106,93,80,1,50,83,58,45,28,51,33,44,81,100,97,34,0,4,8,76,65,36,25,40,37,71,56,74,85,26,68,69,13,38,30,48,10,90,88,96,103,57,53,101,99,104,98,70,46,35,27,7,39,67,54,105,32,77,107,41,59,11,64,87,6,17,49,75,72
